int NumberPatients = 145
int NumberOfRooms = 3
int NumberSurgeons = 17
int NumberOfDays = 6
Duration = [98,119,119,32,32,112,159,32,66,227,117,85,210,66,119,68,98,47,60,98,31,234,66,32,72,210,50,85,74,30,166,46,50,66,74,93,98,119,105,92,85,66,85,50,47,98,97,41,58,165,101,112,103,98,32,260,46,85,208,98,66,31,66,31,98,98,98,78,93,98,32,78,32,201,32,146,32,238,53,66,30,103,78,79,227,47,66,210,46,119,72,238,44,32,60,103,46,98,97,39,53,75,227,159,105,86,131,157,72,80,47,32,31,68,32,78,88,66,66,98,201,66,132,98,120,119,119,118,32,47,46,103,130,103,32,66,50,93,72,32,66,159,39,46,68];
Priority = [0,0,0,0,0,0,0,2,0,0,1,0,0,0,0,0,0,0,0,0,0,0,0,0,0,0,0,0,0,0,0,0,1,0,0,0,0,0,0,0,0,0,0,0,0,0,0,0,1,0,0,0,0,0,0,0,0,0,0,0,0,0,0,0,0,1,0,0,0,0,0,0,0,0,0,0,0,0,0,1,0,0,0,0,0,0,0,0,0,0,0,1,0,0,0,0,0,0,0,0,0,0,0,0,0,0,0,0,0,0,0,0,0,0,0,0,0,0,1,0,0,0,0,0,0,0,0,0,0,0,0,0,0,0,0,0,0,0,0,0,0,0,0,0,0];
Waiting = [113,358,190,79,445,253,487,70,361,57,79,120,204,127,36,49,310,44,63,123,297,120,85,487,63,144,170,78,46,228,44,121,155,221,288,176,382,53,218,315,70,67,137,548,410,389,66,94,487,39,116,1065,144,261,85,127,38,1047,43,459,85,190,30,178,277,80,247,38,116,66,116,214,155,99,319,39,98,66,23,50,534,291,80,172,164,65,220,25,191,24,144,556,190,120,80,57,172,52,169,120,45,172,179,59,127,169,59,23,45,120,221,148,253,172,464,21,86,35,186,52,37,127,60,49,155,56,394,155,242,134,178,127,23,95,155,78,199,23,116,23,191,35,70,24,94];
Surgeon = [9,2,9,6,1,1,1,2,3,10,8,6,7,4,2,3,7,3,10,6,4,4,1,4,5,6,9,10,5,3,2,10,3,12,6,5,3,13,5,2,2,6,3,7,7,5,1,2,10,3,7,1,8,13,1,5,4,6,5,3,6,3,6,5,4,1,3,3,5,1,3,1,1,1,6,1,9,3,9,3,4,3,6,6,2,3,5,3,4,15,3,6,9,2,4,4,9,1,2,3,5,3,2,5,8,6,1,5,4,4,2,1,2,9,4,1,6,2,1,2,1,4,6,1,1,3,1,3,13,1,5,3,2,1,6,3,5,6,5,7,3,4,5,4,8];
BlockAvailability = [[[0,0],[0,0],[0,0]],[[0,1],[0,0],[0,1]],[[0,0],[0,0],[0,0]],[[0,1],[0,0],[0,1]],[[1,0],[1,0],[0,0]],[[0,0],[0,0],[1,1]]];
SurgeonAvailability = [[[1,1],[1,1],[1,1],[1,1],[1,1],[1,1]],[[1,1],[1,1],[1,1],[1,1],[1,1],[1,1]],[[1,1],[1,1],[1,1],[1,1],[1,1],[1,1]],[[1,1],[1,1],[1,1],[1,1],[1,1],[1,1]],[[1,1],[1,1],[1,1],[1,1],[1,1],[1,1]],[[1,1],[1,1],[1,1],[1,1],[1,1],[1,1]],[[1,1],[1,1],[1,1],[1,1],[1,1],[1,1]],[[1,1],[1,1],[1,1],[1,1],[1,1],[1,1]],[[1,1],[1,1],[1,1],[1,1],[1,1],[1,1]],[[1,1],[1,1],[1,1],[1,1],[1,1],[1,1]],[[1,1],[1,1],[1,1],[1,1],[1,1],[1,1]],[[1,1],[1,1],[1,1],[1,1],[1,1],[1,1]],[[1,1],[1,1],[1,1],[1,1],[1,1],[1,1]],[[1,1],[1,1],[1,1],[1,1],[1,1],[1,1]],[[1,1],[1,1],[1,1],[1,1],[1,1],[1,1]],[[1,1],[1,1],[1,1],[1,1],[1,1],[1,1]],[[1,1],[1,1],[1,1],[1,1],[1,1],[1,1]]];
